p = 50;
s = 25;
b = 12;
c = 10;
t = 5;
g = 12;
graph = [| 0,0,1,1,0,1,0,1,0,1,0,0,0,0,0,1,1,0,1,1,0,1,1,1,0
	| 1,0,1,0,0,1,1,1,1,1,0,1,0,1,1,1,0,0,1,1,1,1,1,0,0
	| 1,0,0,0,0,1,1,0,1,0,0,1,0,1,1,1,1,0,0,0,0,1,0,1,0
	| 0,1,0,1,1,1,0,0,0,1,0,1,1,0,0,1,1,1,0,0,1,1,1,1,1
	| 0,0,0,1,1,0,1,0,0,1,1,1,0,1,1,0,1,1,0,1,0,0,0,0,0
	| 1,1,0,1,1,1,0,1,1,1,0,0,1,1,1,1,1,0,0,0,0,0,0,1,1
	| 1,1,0,1,0,0,1,0,0,0,1,1,1,1,1,1,1,0,0,0,1,1,0,1,1
	| 1,1,0,0,1,0,1,1,0,1,1,1,0,1,1,0,0,0,0,0,0,1,0,0,0
	| 0,0,0,0,1,0,1,1,0,0,0,0,1,1,1,0,1,1,1,1,0,0,0,1,1
	| 0,1,0,0,0,1,1,1,1,0,1,0,1,1,0,1,1,0,0,0,1,0,0,1,0
	| 1,1,0,0,0,0,0,1,0,0,1,1,1,0,1,0,1,0,0,1,0,1,0,1,1
	| 1,1,1,0,0,1,1,1,0,0,1,1,1,0,1,1,0,1,0,0,0,1,0,0,1
	| 0,1,0,1,1,1,0,1,1,0,0,1,1,1,1,0,1,0,1,1,1,0,1,0,1
	| 1,0,0,0,0,0,1,1,0,0,0,0,0,0,1,1,1,1,0,0,1,0,0,1,1
	| 1,0,1,1,0,0,0,0,1,1,1,0,0,1,0,1,0,1,0,0,1,0,0,0,1
	| 1,0,0,1,0,1,1,1,0,1,0,1,1,1,1,0,1,0,1,1,1,1,0,1,1
	| 0,1,0,0,1,0,0,1,1,1,0,1,1,0,1,1,1,0,1,1,0,0,0,1,0
	| 1,0,1,1,0,1,1,0,1,0,1,1,0,1,1,1,1,1,0,0,0,0,0,0,1
	| 0,1,0,1,0,1,1,1,1,1,1,1,0,1,0,1,1,0,1,0,0,0,0,1,0
	| 1,1,0,0,0,1,1,0,1,1,1,0,0,1,0,0,1,1,1,1,0,0,1,1,0
	| 0,0,1,0,1,1,0,1,1,1,1,0,0,0,1,0,1,0,1,0,1,0,0,0,1
	| 0,0,0,1,1,1,0,0,1,1,1,1,0,0,1,0,1,1,1,0,0,1,1,0,0
	| 0,0,0,0,0,0,0,1,1,0,0,1,0,1,1,0,1,0,0,0,0,0,1,0,0
	| 0,0,0,1,1,0,0,1,1,1,0,0,1,0,0,0,0,0,1,0,1,0,1,0,1
	| 0,1,0,1,0,1,0,0,0,1,1,0,0,0,0,0,0,0,1,0,0,0,1,0,1
	| 1,0,0,1,1,0,0,0,1,0,1,1,1,1,0,1,1,0,0,0,1,0,1,0,1
	| 0,1,1,1,1,0,0,0,1,1,1,1,1,0,0,1,0,0,0,0,0,1,0,1,1
	| 1,0,0,1,1,1,1,0,1,1,0,0,0,1,1,0,0,0,0,1,1,1,0,0,1
	| 1,0,1,1,1,1,0,1,1,1,1,1,0,0,1,1,1,1,1,1,1,0,1,1,0
	| 1,1,0,0,1,0,0,0,1,0,1,1,0,0,0,0,1,0,0,0,1,0,0,1,0
	| 0,0,1,0,0,1,0,1,0,0,1,1,1,0,0,0,0,0,1,1,0,0,1,1,1
	| 0,1,0,0,1,1,1,1,0,0,0,0,0,1,1,0,1,1,1,1,1,1,0,1,1
	| 1,0,0,0,1,1,1,1,1,0,0,0,1,1,0,0,0,0,0,0,1,1,1,1,1
	| 1,1,1,0,1,0,0,1,0,1,1,1,1,1,1,0,0,1,1,1,1,1,0,0,0
	| 0,1,1,1,1,1,1,1,1,0,1,1,1,0,1,0,0,1,1,1,0,0,1,1,1
	| 1,0,0,0,1,1,0,0,0,1,0,1,1,1,0,1,1,1,0,1,0,1,0,0,0
	| 0,0,1,0,0,0,0,0,1,1,0,1,0,1,1,1,0,1,1,1,0,1,0,0,0
	| 1,1,1,1,1,0,0,1,0,1,0,1,1,0,1,0,1,0,0,1,1,0,1,0,0
	| 0,0,1,1,0,0,0,1,0,0,1,1,0,1,0,1,1,0,0,0,0,1,0,1,0
	| 0,1,0,0,0,0,1,0,1,0,0,0,0,0,0,1,0,1,1,0,1,1,1,1,0
	| 0,0,0,0,1,1,1,0,1,1,0,1,1,1,1,0,0,0,1,0,0,1,1,0,1
	| 1,0,1,1,0,0,0,0,1,0,0,0,1,0,0,0,1,1,1,1,1,0,0,0,0
	| 0,1,0,1,0,0,1,0,1,0,1,0,1,1,0,1,1,0,0,1,0,0,1,1,0
	| 1,1,1,1,0,0,0,1,0,0,1,1,0,1,1,1,0,0,0,0,0,1,1,0,1
	| 0,1,1,0,0,0,1,1,1,1,1,1,1,0,0,1,0,1,0,0,1,1,0,1,0
	| 1,1,1,0,1,1,0,1,0,1,1,0,1,0,0,1,1,1,1,1,0,0,1,1,1
	| 0,0,1,1,0,0,1,1,1,0,1,0,1,0,0,0,0,1,1,0,1,1,1,1,0
	| 0,1,0,0,0,0,1,0,0,1,1,1,1,0,1,0,0,0,0,1,1,1,1,0,0
	| 0,1,1,1,1,0,1,1,1,1,1,0,0,1,0,1,1,1,0,0,0,0,1,0,1
	| 0,1,0,0,1,0,1,0,1,1,1,0,1,0,0,1,1,1,0,0,1,1,0,0,1
	|];
groups = [
	{46,23,30,17,18},{49,45,36,38,40},{43,42},{37,35,29},{31,4,7,28,12},{32,25,44,22,6},{9,3},{14,20,1,5},{13,27},{34,8},{50,47,39,21,33},{16,15}
]